m = 7; % number of couriers
n = 8; % number of packages

l = [13, 26, 15, 20, 25, 20, 15]; % maximum carriable weight per courier
s = [14, 10, 12, 15, 10, 11, 9, 10]; % weight of each package

D = % distance matrix 
	 [| 13, 13, 8, 20, 10, 13, 6, 11, 20
	 | 13, 12, 7, 16, 13, 7, 14, 13, 13
	 | 8, 7, 20, 5, 11, 12, 7, 17, 13
	 | 20, 16, 5, 10, 12, 12, 15, 5, 16
	 | 10, 13, 11, 12, 10, 20, 5, 18, 15
	 | 13, 7, 12, 12, 20, 11, 18, 18, 7
	 | 6, 14, 7, 15, 5, 18, 10, 7, 7
	 | 11, 13, 17, 5, 18, 18, 7, 6, 11
	 | 7, 5, 7, 6, 19, 14, 17, 20, 19
	 |];